Traveling Salesman Problem/TSP_generados/Aleatorio1621103563_16.tsp
NAME: Aleatorio1621103563_16.tsp
COMMENT: Randomly generated scenario
TYPE: TSP
DIMENSION: 16
EDGE_WEIGHT_TYPE: ATT
NODE_COORD_SECTION
1 11.98 18.56
2 34.44 27.01
3 41.6 10.27
4 46.09 36.62
5 3.78 40.01
6 42.74 39.3
7 29.15 31.13
8 17.4 40.0
9 5.97 7.81
10 25.13 19.62
11 16.27 39.1
12 16.92 26.66
13 25.44 22.88
14 0.68 37.43
15 8.51 25.19
16 8.1 7.43
