Traveling Salesman Problem/TSP_generados/Aleatorio1621103563_16.opt.tour
NAME: Aleatorio1621103563_16.opt.tour
COMMENT: Optimal solution for Aleatorio1621103563_16 (172.34557161742467)
TYPE: TOUR
DIMENSION: 16
TOUR_SECTION
1 16 9 15 14 5 11 8 7 2 6 4 3 10 13 12
-1
EOF
